1803, 0, 0, 81, 1
1804, 0, 1, 58, 2
1805, 0, 2, 98, 0
1806, 0, 3, 30, 3
1807, 1, 0, 59, 0
1808, 1, 1, 38, 1
1809, 1, 2, 68, 3
1810, 1, 3, 35, 2
1811, 2, 0, 85, 0
1812, 2, 1, 87, 2
1813, 2, 2, 83, 1
1814, 2, 3, 98, 3
1815, 3, 0, 67, 3
1816, 3, 1, 54, 1
1817, 3, 2, 57, 0
1818, 3, 3, 75, 2
